proyfinal/src/viki/013/experimentInOfficeAgust.take6.output/d046d2d5-9545-4512-96fb-79a35d60011e.als.out
Reading from standard input... Use '--help' for help.
============================[ Problem Statistics ]=============================
|                                                                             |
|  Number of variables:         87638                                         |
|  Number of clauses:          161767                                         |
|  Parse time:                   0.03 s                                       |
|                                                                             |
============================[ Search Statistics ]==============================
| Conflicts |          ORIGINAL         |          LEARNT          | Progress |
|           |    Vars  Clauses Literals |    Limit  Clauses Lit/Cl |          |
===============================================================================
|       100 |   63814   110382   275620 |    40473      100     14 | 27.185 % |
|       250 |   63795   110306   275444 |    44520      226     17 | 27.206 % |
|       475 |   63795   110306   275444 |    48972      451     19 | 27.206 % |
|       812 |   63794   110262   275354 |    53870      787     31 | 27.207 % |
|      1318 |   63794   110262   275354 |    59257     1293     34 | 27.207 % |
|      2077 |   63794   110262   275354 |    65182     2052     45 | 27.207 % |
|      3216 |   63770   110162   275125 |    71701     3189     45 | 27.235 % |
|      4924 |   63770   110162   275125 |    78871     4897     58 | 27.235 % |
|      7486 |   56270    87195   218748 |    86758     6748     61 | 35.793 % |
|     11330 |   56249    87019   218354 |    95434    10572     68 | 35.817 % |
|     17096 |   56182    86762   217743 |   104977    16313     79 | 35.893 % |
===============================================================================
restarts              : 73
conflicts             : 20685          (7192 /sec)
decisions             : 80509          (0.00 % random) (27992 /sec)
propagations          : 31353471       (10901365 /sec)
conflict literals     : 1666997        (44.36 % deleted)
Memory used           : 38.68 MB
CPU time              : 2.8761 s

INDETERMINATE
